p tw 20 78
1 19
1 20
1 5
1 9
2 14
2 16
2 18
2 3
2 5
2 6
2 9
11 12
11 14
11 17
11 20
12 17
12 18
13 14
13 19
13 20
14 15
14 17
14 18
15 18
16 17
16 18
17 18
17 20
3 11
3 13
3 4
3 6
3 9
3 10
4 12
4 17
4 19
4 6
4 9
5 12
5 14
5 16
5 19
5 7
5 8
6 11
6 12
6 14
6 17
6 19
6 8
6 9
6 10
7 13
7 16
7 17
7 20
7 9
7 10
8 11
8 13
8 14
8 15
8 16
8 20
8 10
9 14
9 15
9 17
9 19
9 20
9 10
10 11
10 12
10 14
10 17
10 18
10 20
